CMD:
./solvers/bin/cadical --plain --no-reduce -t 1600 ./data/cnfs//arbitrated_top_n5_w128_d8_e0/arbitrated_top_n5_w128_d8_e0.65.cnf

c --- [ banner ] -------------------------------------------------------------
c 
c CaDiCaL SAT Solver
c Copyright (c) 2016-2024
c A. Biere, M. Fleury, N. Froleyks, K. Fazekas, F. Pollitt, T. Faller
c JKU Linz, University of Freiburg, TU Wien
c 
c Version 2.1.3 5296d3d2a9bf48c154ab2acb5e44625776d821bf
c g++ (Gentoo 12.3.1_p20230526 p2) 12.3.1 20230526 -Wall -Wextra -O3 -DNDEBUG
c Sat Aug 9 07:26:21 PDT 2025 Linux cedar2.int.cedar.computecanada.ca 5.14.0-362.24.2.el9_3.x86_64 x86_64
c 
c --- [ limit ] --------------------------------------------------------------
c 
c setting time limit to 1600 seconds real time (due to '-t 1600')
c 
c --- [ parsing input ] ------------------------------------------------------
c 
c reading DIMACS file from './data/cnfs//arbitrated_top_n5_w128_d8_e0/arbitrated_top_n5_w128_d8_e0.65.cnf'
c opening file to read './data/cnfs//arbitrated_top_n5_w128_d8_e0/arbitrated_top_n5_w128_d8_e0.65.cnf'
c found 'p cnf 1938254 5667421' header
c parsed 5667421 clauses in 0.85 seconds process time
c 
c --- [ options ] ------------------------------------------------------------
c 
c   --compact=false                (different from default 'true')
c   --decompose=false              (different from default 'true')
c   --deduplicate=false            (different from default 'true')
c   --elim=false                   (different from default 'true')
c   --probe=false                  (different from default 'true')
c   --reduce=false                 (different from default 'true')
c   --subsume=false                (different from default 'true')
c   --ternary=false                (different from default 'true')
c   --transred=false               (different from default 'true')
c   --vivify=false                 (different from default 'true')
c 
c --- [ solving ] ------------------------------------------------------------
c 
c time measured in process time since initialization
c 
c  seconds   reductions  redundant   irredundant
c          MB    restarts       trail        variables
c           level   conflicts       glue           remaining
c 
c *  0.85 741  0 0   0    0    0  0% 0 4254837 906586 47%
c l  0.97 749  0 0   0    0    0  0% 0 4254837 906586 47%
c 1  0.97 749  0 0   0    0    0  0% 0 4254837 906586 47%
c 
c --- [ result ] -------------------------------------------------------------
c 
s SATISFIABLE
v 1 2 3 4 5 6 7 8 9 10 11 12 13 14 15 16 17 18 19 20 21 22 23 24 25 26 27 28
v 29 30 31 32 33 34 35 36 37 38 39 40 41 42 43 44 45 46 47 48 49 50 51 52 53
v 54 55 56 57 58 59 60 61 62 63 64 65 66 67 68 69 70 71 72 73 74 75 76 77 78
v 79 80 81 82 83 84 85 86 87 88 89 90 91 92 93 94 95 96 97 98 99 100 101 102
v 103 104 105 106 107 108 109 110 111 112 113 114 115 116 117 118 119 120 121
v 122 123 124 125 126 127 128 129 130 131 132 133 134 135 136 137 138 139 140
v 141 142 143 144 145 146 147 148 149 150 151 152 153 154 155 156 157 158 159
v 160 161 162 163 164 165 166 167 168 169 170 171 172 173 174 175 176 177 178
v 179 180 181 182 183 184 185 186 187 188 189 190 191 192 193 194 195 196 197
v 198 199 200 201 202 203 204 205 206 207 208 209 210 211 212 213 214 215 216
v 217 218 219 220 221 222 223 224 225 226 227 228 229 230 231 232 233 234 235
v 236 237 238 239 240 241 242 243 244 245 246 247 248 249 250 251 252 253 254
v 255 256 257 258 259 260 261 262 263 264 265 266 267 268 269 270 271 272 273
v 274 275 276 277 278 279 280 281 282 283 284 285 286 287 288 289 290 291 292
v 293 294 295 296 297 298 299 300 301 302 303 304 305 306 307 308 309 310 311
v 312 313 314 315 316 317 318 319 320 321 322 323 324 325 326 327 328 329 330
v 331 332 333 334 335 336 337 338 339 340 341 342 343 344 345 346 347 348 349
v 350 351 352 353 354 355 356 357 358 359 360 361 362 363 364 365 366 367 368
v 369 370 371 372 373 374 375 376 377 378 379 380 381 382 383 384 385 386 387
v 388 389 390 391 392 393 394 395 396 397 398 399 400 401 402 403 404 405 406
v 407 408 409 410 411 412 413 414 415 416 417 418 419 420 421 422 423 424 425
v 426 427 428 429 430 431 432 433 434 435 436 437 438 439 440 441 442 443 444
v 445 446 447 448 449 450 451 452 453 454 455 456 457 458 459 460 461 462 463
v 464 465 466 467 468 469 470 471 472 473 474 475 476 477 478 479 480 481 482
v 483 484 485 486 487 488 489 490 491 492 493 494 495 496 497 498 499 500 501
v 502 503 504 505 506 507 508 509 510 511 512 513 514 515 516 517 518 519 520
v 521 522 523 524 525 526 527 528 529 530 531 532 533 534 535 536 537 538 539
v 540 541 542 543 544 545 546 547 548 549 550 551 552 553 554 555 556 557 558
v 559 560 561 562 563 564 565 566 567 568 569 570 571 572 573 574 575 576 577
v 578 579 580 581 582 583 584 585 586 587 588 589 590 591 592 593 594 595 596
v 597 598 599 600 601 602 603 604 605 606 607 608 609 610 611 612 613 614 615
v 616 617 618 619 620 621 622 623 624 625 626 627 628 629 630 631 632 633 634
v 635 636 637 638 639 640 641 642 643 644 645 646 647 648 649 650 651 652 653
v 654 655 656 657 658 659 660 661 662 663 664 665 666 667 668 669 670 671 672
v 673 674 675 676 677 678 679 680 681 682 683 684 685 686 687 688 689 690 691
v 692 693 694 695 696 697 698 699 700 701 702 703 704 705 706 707 708 709 710
v 711 712 713 714 715 716 717 718 719 720 721 722 723 724 725 726 727 728 729
v 730 731 732 733 734 735 736 737 738 739 740 741 742 743 744 745 746 747 748
v 749 750 751 752 753 754 755 756 757 758 759 760 761 762 763 764 765 766 767
v 768 769 770 771 772 773 774 775 776 777 778 779 780 781 782 783 784 785 786
v 787 788 789 790 791 792 793 794 795 796 797 798 799 800 801 802 803 804 805
v 806 807 808 809 810 811 812 813 814 815 816 817 818 819 820 821 822 823 824
v 825 826 827 828 829 830 831 832 833 834 835 836 837 838 839 840 841 842 843
v 844 845 846 847 848 849 850 851 852 853 854 855 856 857 858 859 860 861 862
v 863 864 865 866 867 868 869 870 871 872 873 874 875 876 877 878 879 880 881
v 882 883 884 885 886 887 888 889 890 891 892 893 894 895 896 897 898 899 900
v 901 902 903 904 905 906 907 908 909 910 911 912 913 914 915 916 917 918 919
... skipped 218770 lines ...
v -1937744 -1937745 -1937746 -1937747 -1937748 -1937749 -1937750 -1937751
v -1937752 -1937753 -1937754 -1937755 -1937756 -1937757 -1937758 -1937759
v -1937760 -1937761 -1937762 -1937763 -1937764 -1937765 -1937766 -1937767
v -1937768 -1937769 -1937770 -1937771 -1937772 -1937773 -1937774 -1937775
v -1937776 -1937777 -1937778 -1937779 -1937780 -1937781 -1937782 -1937783
v -1937784 -1937785 -1937786 -1937787 -1937788 -1937789 -1937790 -1937791
v -1937792 -1937793 -1937794 -1937795 -1937796 -1937797 -1937798 -1937799
v -1937800 -1937801 -1937802 -1937803 -1937804 -1937805 -1937806 -1937807
v -1937808 -1937809 -1937810 -1937811 -1937812 -1937813 -1937814 -1937815
v -1937816 -1937817 -1937818 -1937819 -1937820 -1937821 -1937822 -1937823
v -1937824 -1937825 -1937826 -1937827 -1937828 -1937829 -1937830 -1937831
v -1937832 -1937833 -1937834 -1937835 -1937836 -1937837 -1937838 -1937839
v -1937840 -1937841 -1937842 -1937843 -1937844 -1937845 -1937846 -1937847
v -1937848 -1937849 -1937850 -1937851 -1937852 -1937853 -1937854 -1937855
v -1937856 -1937857 -1937858 -1937859 -1937860 -1937861 -1937862 -1937863
v -1937864 -1937865 -1937866 -1937867 -1937868 -1937869 -1937870 -1937871
v -1937872 -1937873 -1937874 -1937875 -1937876 -1937877 -1937878 -1937879
v -1937880 -1937881 -1937882 -1937883 -1937884 -1937885 -1937886 -1937887
v -1937888 -1937889 -1937890 -1937891 -1937892 -1937893 -1937894 -1937895
v -1937896 -1937897 -1937898 -1937899 -1937900 -1937901 -1937902 -1937903
v -1937904 -1937905 -1937906 -1937907 -1937908 -1937909 -1937910 -1937911
v -1937912 -1937913 -1937914 -1937915 -1937916 -1937917 -1937918 -1937919
v -1937920 -1937921 -1937922 -1937923 -1937924 -1937925 -1937926 -1937927
v -1937928 -1937929 -1937930 -1937931 -1937932 -1937933 -1937934 -1937935
v -1937936 -1937937 -1937938 -1937939 -1937940 -1937941 -1937942 -1937943
v -1937944 -1937945 -1937946 -1937947 -1937948 -1937949 -1937950 -1937951
v -1937952 -1937953 -1937954 -1937955 -1937956 -1937957 -1937958 -1937959
v -1937960 -1937961 -1937962 -1937963 -1937964 -1937965 -1937966 -1937967
v -1937968 -1937969 -1937970 -1937971 -1937972 -1937973 -1937974 -1937975
v -1937976 -1937977 -1937978 -1937979 -1937980 -1937981 -1937982 -1937983
v -1937984 -1937985 -1937986 -1937987 -1937988 1937989 -1937990 1937991
v -1937992 -1937993 -1937994 -1937995 -1937996 -1937997 -1937998 -1937999
v -1938000 -1938001 -1938002 -1938003 -1938004 -1938005 -1938006 -1938007
v -1938008 -1938009 -1938010 -1938011 -1938012 -1938013 -1938014 -1938015
v -1938016 -1938017 -1938018 -1938019 -1938020 -1938021 -1938022 -1938023
v -1938024 -1938025 -1938026 -1938027 -1938028 -1938029 -1938030 -1938031
v -1938032 -1938033 -1938034 -1938035 -1938036 -1938037 -1938038 -1938039
v -1938040 -1938041 -1938042 -1938043 -1938044 -1938045 -1938046 -1938047
v -1938048 -1938049 -1938050 -1938051 -1938052 -1938053 -1938054 -1938055
v -1938056 -1938057 -1938058 -1938059 -1938060 -1938061 -1938062 -1938063
v -1938064 -1938065 -1938066 -1938067 -1938068 -1938069 -1938070 -1938071
v -1938072 -1938073 -1938074 -1938075 -1938076 -1938077 -1938078 -1938079
v -1938080 -1938081 -1938082 -1938083 -1938084 -1938085 -1938086 -1938087
v -1938088 -1938089 -1938090 -1938091 -1938092 -1938093 -1938094 -1938095
v -1938096 -1938097 -1938098 -1938099 -1938100 -1938101 -1938102 -1938103
v -1938104 -1938105 -1938106 -1938107 -1938108 -1938109 -1938110 -1938111
v -1938112 -1938113 -1938114 -1938115 -1938116 -1938117 -1938118 -1938119
v -1938120 -1938121 -1938122 -1938123 -1938124 -1938125 -1938126 -1938127
v -1938128 -1938129 -1938130 -1938131 -1938132 -1938133 -1938134 -1938135
v -1938136 -1938137 -1938138 -1938139 -1938140 -1938141 -1938142 -1938143
v -1938144 -1938145 -1938146 -1938147 -1938148 -1938149 -1938150 -1938151
v -1938152 -1938153 -1938154 -1938155 -1938156 -1938157 -1938158 -1938159
v -1938160 -1938161 -1938162 -1938163 -1938164 -1938165 -1938166 -1938167
v -1938168 -1938169 -1938170 -1938171 -1938172 -1938173 -1938174 -1938175
v -1938176 -1938177 -1938178 -1938179 -1938180 -1938181 -1938182 -1938183
v -1938184 -1938185 -1938186 -1938187 -1938188 -1938189 -1938190 -1938191
v -1938192 -1938193 -1938194 -1938195 -1938196 -1938197 -1938198 -1938199
v -1938200 -1938201 -1938202 -1938203 -1938204 -1938205 -1938206 -1938207
v -1938208 -1938209 -1938210 -1938211 -1938212 -1938213 -1938214 -1938215
v -1938216 -1938217 -1938218 -1938219 -1938220 -1938221 -1938222 -1938223
v -1938224 -1938225 -1938226 -1938227 -1938228 -1938229 -1938230 -1938231
v -1938232 -1938233 -1938234 -1938235 -1938236 -1938237 -1938238 -1938239
v -1938240 -1938241 -1938242 -1938243 -1938244 -1938245 -1938246 -1938247
v -1938248 -1938249 1938250 -1938251 -1938252 1938253 -1938254 0
c 
c --- [ run-time profiling ] -------------------------------------------------
c 
c process time taken by individual solving procedures
c (percentage relative to process time for solving)
c 
c         0.85  690.41% parse
c         0.12   99.90% lucky
c         0.12   99.90% search
c         0.00    0.00% simplify
c   =================================
c         0.12   11.59% solve
c 
c last line shows process time for solving
c (percentage relative to total process time)
c 
c --- [ statistics ] ---------------------------------------------------------
c 
c fixed:                   1031032        53.19 %  of all variables
c lucky:                         1       100.00 %  of tried
c minimized:                     0         0.00 %  learned literals
c shrunken:                      0         0.00 %  learned literals
c minishrunken:                  0         0.00 %  learned literals
c propagations:            1031032         8.37 M  per second
c 
c seconds are measured in process time for solving
c 
c --- [ resources ] ----------------------------------------------------------
c 
c total process time since initialization:         1.06    seconds
c total real time since initialization:            1.09    seconds
c maximum resident set size of process:          766.77    MB
c 
c --- [ shutting down ] ------------------------------------------------------
c 
c exit 10
